58
1 0 8
2 0 8
2 1 4
3 0 3
3 1 6
3 2 1
4 0 8
4 1 8
4 2 2
4 3 5
5 0 8
5 1 1
5 2 5
5 3 7
5 4 4
6 0 4
6 1 8
6 2 1
6 3 2
6 4 7
6 5 6
7 0 2
7 1 2
7 2 1
7 3 6
7 4 2
7 5 4
7 6 5
8 0 7
8 1 4
8 2 8
8 3 6
8 4 8
8 5 2
8 6 4
8 7 7
9 0 8
9 1 3
9 2 5
9 3 7
9 4 1
9 5 2
9 6 8
9 7 1
9 8 8
10 0 3
10 1 6
10 2 8
10 3 8
10 4 4
10 5 5
10 6 6
10 7 7
10 8 3
10 9 2
11 0 4
11 1 3
11 2 2
11 3 4
11 4 3
11 5 7
11 6 5
11 7 5
11 8 6
11 9 2
11 10 1
12 0 1
12 1 4
12 2 6
12 3 5
12 4 1
12 5 8
12 6 2
12 7 8
12 8 7
12 9 3
12 10 5
12 11 6
13 0 6
13 1 7
13 2 2
13 3 4
13 4 2
13 5 1
13 6 1
13 7 4
13 8 4
13 9 5
13 10 8
13 11 1
13 12 2
14 0 6
14 1 7
14 2 1
14 3 6
14 4 2
14 5 5
14 6 4
14 7 8
14 8 8
14 9 6
14 10 6
14 11 3
14 12 6
14 13 7
15 0 1
15 1 2
15 2 1
15 3 6
15 4 8
15 5 7
15 6 5
15 7 7
15 8 8
15 9 5
15 10 7
15 11 4
15 12 3
15 13 1
15 14 6
16 0 6
16 1 4
16 2 4
16 3 4
16 4 1
16 5 6
16 6 3
16 7 7
16 8 3
16 9 7
16 10 4
16 11 5
16 12 2
16 13 6
16 14 4
16 15 1
17 0 8
17 1 8
17 2 7
17 3 8
17 4 3
17 5 1
17 6 5
17 7 7
17 8 5
17 9 3
17 10 3
17 11 7
17 12 6
17 13 3
17 14 6
17 15 7
17 16 4
18 0 6
18 1 2
18 2 6
18 3 5
18 4 8
18 5 5
18 6 1
18 7 6
18 8 8
18 9 7
18 10 5
18 11 1
18 12 5
18 13 8
18 14 5
18 15 2
18 16 5
18 17 2
19 0 5
19 1 2
19 2 3
19 3 4
19 4 8
19 5 5
19 6 4
19 7 4
19 8 2
19 9 5
19 10 4
19 11 1
19 12 6
19 13 3
19 14 6
19 15 7
19 16 5
19 17 7
19 18 8
20 0 5
20 1 6
20 2 6
20 3 4
20 4 7
20 5 3
20 6 1
20 7 1
20 8 4
20 9 2
20 10 2
20 11 7
20 12 5
20 13 3
20 14 7
20 15 5
20 16 3
20 17 5
20 18 8
20 19 2
21 0 4
21 1 8
21 2 5
21 3 5
21 4 3
21 5 8
21 6 3
21 7 1
21 8 5
21 9 7
21 10 8
21 11 7
21 12 3
21 13 5
21 14 4
21 15 8
21 16 2
21 17 5
21 18 3
21 19 8
21 20 6
22 0 1
22 1 2
22 2 4
22 3 4
22 4 3
22 5 4
22 6 6
22 7 4
22 8 1
22 9 6
22 10 2
22 11 6
22 12 5
22 13 6
22 14 7
22 15 3
22 16 4
22 17 8
22 18 6
22 19 2
22 20 7
22 21 4
23 0 1
23 1 3
23 2 1
23 3 2
23 4 5
23 5 4
23 6 5
23 7 6
23 8 1
23 9 1
23 10 4
23 11 1
23 12 8
23 13 1
23 14 5
23 15 1
23 16 8
23 17 8
23 18 3
23 19 6
23 20 2
23 21 1
23 22 2
24 0 3
24 1 5
24 2 7
24 3 3
24 4 2
24 5 2
24 6 7
24 7 8
24 8 6
24 9 8
24 10 3
24 11 1
24 12 8
24 13 3
24 14 5
24 15 6
24 16 6
24 17 5
24 18 3
24 19 2
24 20 4
24 21 5
24 22 5
24 23 8
25 0 3
25 1 6
25 2 3
25 3 1
25 4 1
25 5 4
25 6 5
25 7 3
25 8 3
25 9 4
25 10 3
25 11 1
25 12 5
25 13 6
25 14 5
25 15 2
25 16 3
25 17 5
25 18 8
25 19 4
25 20 8
25 21 8
25 22 4
25 23 5
25 24 7
26 0 2
26 1 2
26 2 2
26 3 1
26 4 3
26 5 8
26 6 7
26 7 6
26 8 1
26 9 3
26 10 6
26 11 4
26 12 8
26 13 3
26 14 5
26 15 2
26 16 5
26 17 3
26 18 7
26 19 5
26 20 8
26 21 6
26 22 6
26 23 6
26 24 5
26 25 2
27 0 3
27 1 1
27 2 8
27 3 8
27 4 5
27 5 4
27 6 2
27 7 3
27 8 6
27 9 5
27 10 3
27 11 3
27 12 6
27 13 3
27 14 5
27 15 6
27 16 5
27 17 1
27 18 1
27 19 7
27 20 3
27 21 6
27 22 7
27 23 1
27 24 3
27 25 4
27 26 8
28 0 1
28 1 2
28 2 6
28 3 2
28 4 4
28 5 5
28 6 2
28 7 2
28 8 7
28 9 8
28 10 3
28 11 7
28 12 2
28 13 7
28 14 2
28 15 7
28 16 2
28 17 5
28 18 6
28 19 8
28 20 3
28 21 3
28 22 5
28 23 3
28 24 6
28 25 3
28 26 8
28 27 2
29 0 5
29 1 5
29 2 4
29 3 5
29 4 1
29 5 3
29 6 5
29 7 6
29 8 6
29 9 6
29 10 3
29 11 7
29 12 4
29 13 3
29 14 2
29 15 7
29 16 7
29 17 6
29 18 1
29 19 3
29 20 4
29 21 4
29 22 5
29 23 4
29 24 5
29 25 3
29 26 5
29 27 3
29 28 6
30 0 1
30 1 7
30 2 3
30 3 7
30 4 2
30 5 4
30 6 6
30 7 1
30 8 8
30 9 1
30 10 2
30 11 5
30 12 8
30 13 3
30 14 4
30 15 3
30 16 5
30 17 6
30 18 5
30 19 3
30 20 8
30 21 4
30 22 1
30 23 4
30 24 5
30 25 1
30 26 7
30 27 4
30 28 3
30 29 7
31 0 5
31 1 7
31 2 3
31 3 1
31 4 3
31 5 3
31 6 3
31 7 3
31 8 1
31 9 2
31 10 8
31 11 6
31 12 3
31 13 5
31 14 7
31 15 7
31 16 2
31 17 7
31 18 3
31 19 1
31 20 2
31 21 6
31 22 5
31 23 8
31 24 5
31 25 4
31 26 4
31 27 7
31 28 7
31 29 3
31 30 5
32 0 1
32 1 8
32 2 4
32 3 6
32 4 5
32 5 3
32 6 5
32 7 3
32 8 8
32 9 8
32 10 5
32 11 6
32 12 2
32 13 7
32 14 3
32 15 5
32 16 4
32 17 8
32 18 6
32 19 6
32 20 1
32 21 6
32 22 3
32 23 2
32 24 4
32 25 5
32 26 6
32 27 2
32 28 3
32 29 7
32 30 8
32 31 8
33 0 2
33 1 5
33 2 5
33 3 1
33 4 8
33 5 2
33 6 1
33 7 1
33 8 5
33 9 7
33 10 5
33 11 3
33 12 8
33 13 1
33 14 7
33 15 2
33 16 7
33 17 5
33 18 1
33 19 5
33 20 6
33 21 2
33 22 6
33 23 8
33 24 5
33 25 3
33 26 3
33 27 3
33 28 7
33 29 7
33 30 6
33 31 5
33 32 2
34 0 1
34 1 6
34 2 7
34 3 4
34 4 2
34 5 5
34 6 3
34 7 3
34 8 5
34 9 3
34 10 1
34 11 5
34 12 2
34 13 7
34 14 7
34 15 2
34 16 1
34 17 6
34 18 1
34 19 1
34 20 8
34 21 1
34 22 4
34 23 2
34 24 5
34 25 5
34 26 3
34 27 6
34 28 4
34 29 2
34 30 2
34 31 7
34 32 5
34 33 6
35 0 7
35 1 7
35 2 7
35 3 7
35 4 4
35 5 6
35 6 8
35 7 8
35 8 7
35 9 4
35 10 8
35 11 2
35 12 4
35 13 7
35 14 5
35 15 6
35 16 2
35 17 4
35 18 6
35 19 8
35 20 8
35 21 7
35 22 1
35 23 4
35 24 4
35 25 4
35 26 2
35 27 4
35 28 1
35 29 3
35 30 3
35 31 7
35 32 6
35 33 2
35 34 2
36 0 5
36 1 7
36 2 1
36 3 5
36 4 6
36 5 6
36 6 8
36 7 3
36 8 1
36 9 6
36 10 1
36 11 5
36 12 6
36 13 4
36 14 5
36 15 5
36 16 3
36 17 8
36 18 1
36 19 2
36 20 2
36 21 2
36 22 1
36 23 1
36 24 1
36 25 4
36 26 4
36 27 3
36 28 2
36 29 1
36 30 4
36 31 3
36 32 7
36 33 1
36 34 3
36 35 8
37 0 4
37 1 5
37 2 5
37 3 3
37 4 7
37 5 3
37 6 4
37 7 1
37 8 5
37 9 6
37 10 1
37 11 5
37 12 6
37 13 6
37 14 4
37 15 6
37 16 7
37 17 1
37 18 7
37 19 6
37 20 1
37 21 7
37 22 3
37 23 6
37 24 6
37 25 3
37 26 6
37 27 1
37 28 6
37 29 2
37 30 7
37 31 6
37 32 2
37 33 3
37 34 4
37 35 2
37 36 2
38 0 7
38 1 2
38 2 8
38 3 2
38 4 3
38 5 6
38 6 2
38 7 6
38 8 6
38 9 5
38 10 4
38 11 2
38 12 4
38 13 1
38 14 3
38 15 4
38 16 4
38 17 1
38 18 6
38 19 2
38 20 2
38 21 7
38 22 2
38 23 1
38 24 4
38 25 4
38 26 1
38 27 1
38 28 6
38 29 5
38 30 6
38 31 6
38 32 3
38 33 7
38 34 8
38 35 8
38 36 6
38 37 8
39 0 4
39 1 3
39 2 8
39 3 4
39 4 4
39 5 2
39 6 6
39 7 3
39 8 8
39 9 1
39 10 1
39 11 4
39 12 6
39 13 8
39 14 8
39 15 1
39 16 3
39 17 8
39 18 6
39 19 2
39 20 3
39 21 6
39 22 3
39 23 5
39 24 3
39 25 5
39 26 1
39 27 5
39 28 4
39 29 4
39 30 1
39 31 4
39 32 8
39 33 2
39 34 1
39 35 6
39 36 7
39 37 6
39 38 4
40 0 6
40 1 1
40 2 1
40 3 2
40 4 4
40 5 5
40 6 2
40 7 1
40 8 1
40 9 7
40 10 5
40 11 8
40 12 6
40 13 7
40 14 6
40 15 5
40 16 6
40 17 3
40 18 1
40 19 2
40 20 8
40 21 4
40 22 3
40 23 5
40 24 7
40 25 3
40 26 4
40 27 7
40 28 1
40 29 8
40 30 1
40 31 6
40 32 2
40 33 1
40 34 5
40 35 4
40 36 3
40 37 8
40 38 7
40 39 7
41 0 1
41 1 6
41 2 8
41 3 7
41 4 8
41 5 2
41 6 1
41 7 7
41 8 3
41 9 5
41 10 4
41 11 2
41 12 8
41 13 1
41 14 5
41 15 8
41 16 6
41 17 7
41 18 7
41 19 5
41 20 8
41 21 1
41 22 2
41 23 7
41 24 1
41 25 2
41 26 4
41 27 7
41 28 6
41 29 6
41 30 4
41 31 2
41 32 1
41 33 2
41 34 2
41 35 8
41 36 3
41 37 5
41 38 8
41 39 5
41 40 8
42 0 4
42 1 1
42 2 6
42 3 3
42 4 8
42 5 7
42 6 7
42 7 3
42 8 8
42 9 1
42 10 4
42 11 8
42 12 6
42 13 5
42 14 2
42 15 1
42 16 8
42 17 6
42 18 6
42 19 4
42 20 2
42 21 3
42 22 3
42 23 4
42 24 7
42 25 5
42 26 4
42 27 2
42 28 7
42 29 6
42 30 5
42 31 3
42 32 3
42 33 2
42 34 2
42 35 6
42 36 2
42 37 7
42 38 8
42 39 5
42 40 6
42 41 1
43 0 1
43 1 7
43 2 3
43 3 2
43 4 6
43 5 6
43 6 4
43 7 6
43 8 8
43 9 5
43 10 4
43 11 5
43 12 4
43 13 3
43 14 3
43 15 8
43 16 6
43 17 8
43 18 2
43 19 8
43 20 7
43 21 4
43 22 8
43 23 2
43 24 6
43 25 4
43 26 8
43 27 6
43 28 3
43 29 3
43 30 2
43 31 8
43 32 2
43 33 2
43 34 8
43 35 3
43 36 4
43 37 7
43 38 7
43 39 2
43 40 6
43 41 4
43 42 6
44 0 7
44 1 8
44 2 5
44 3 8
44 4 5
44 5 7
44 6 6
44 7 1
44 8 2
44 9 2
44 10 2
44 11 7
44 12 3
44 13 7
44 14 6
44 15 3
44 16 1
44 17 1
44 18 2
44 19 4
44 20 2
44 21 1
44 22 5
44 23 8
44 24 1
44 25 5
44 26 6
44 27 2
44 28 3
44 29 2
44 30 7
44 31 7
44 32 3
44 33 6
44 34 3
44 35 6
44 36 5
44 37 2
44 38 3
44 39 8
44 40 7
44 41 1
44 42 1
44 43 1
45 0 6
45 1 6
45 2 4
45 3 2
45 4 7
45 5 2
45 6 3
45 7 8
45 8 6
45 9 5
45 10 8
45 11 2
45 12 1
45 13 7
45 14 2
45 15 2
45 16 8
45 17 7
45 18 4
45 19 2
45 20 4
45 21 2
45 22 4
45 23 4
45 24 7
45 25 6
45 26 6
45 27 5
45 28 4
45 29 7
45 30 3
45 31 5
45 32 4
45 33 2
45 34 2
45 35 1
45 36 1
45 37 8
45 38 7
45 39 2
45 40 3
45 41 5
45 42 5
45 43 6
45 44 1
46 0 7
46 1 1
46 2 4
46 3 8
46 4 1
46 5 4
46 6 1
46 7 5
46 8 8
46 9 3
46 10 7
46 11 2
46 12 6
46 13 2
46 14 7
46 15 5
46 16 6
46 17 5
46 18 2
46 19 1
46 20 6
46 21 2
46 22 6
46 23 3
46 24 8
46 25 4
46 26 7
46 27 4
46 28 3
46 29 3
46 30 2
46 31 6
46 32 4
46 33 5
46 34 1
46 35 2
46 36 6
46 37 2
46 38 7
46 39 1
46 40 7
46 41 2
46 42 6
46 43 6
46 44 1
46 45 4
47 0 4
47 1 4
47 2 4
47 3 3
47 4 3
47 5 1
47 6 8
47 7 4
47 8 4
47 9 6
47 10 3
47 11 5
47 12 6
47 13 8
47 14 8
47 15 5
47 16 4
47 17 8
47 18 6
47 19 3
47 20 7
47 21 5
47 22 4
47 23 1
47 24 8
47 25 2
47 26 2
47 27 2
47 28 5
47 29 1
47 30 8
47 31 4
47 32 4
47 33 5
47 34 8
47 35 6
47 36 4
47 37 7
47 38 5
47 39 1
47 40 4
47 41 7
47 42 5
47 43 2
47 44 7
47 45 2
47 46 2
48 0 8
48 1 7
48 2 8
48 3 3
48 4 1
48 5 3
48 6 5
48 7 2
48 8 8
48 9 8
48 10 2
48 11 5
48 12 5
48 13 7
48 14 1
48 15 7
48 16 2
48 17 2
48 18 5
48 19 6
48 20 3
48 21 4
48 22 1
48 23 4
48 24 1
48 25 5
48 26 4
48 27 4
48 28 5
48 29 1
48 30 5
48 31 2
48 32 7
48 33 6
48 34 7
48 35 3
48 36 6
48 37 5
48 38 7
48 39 3
48 40 6
48 41 3
48 42 4
48 43 7
48 44 7
48 45 8
48 46 3
48 47 8
49 0 3
49 1 5
49 2 4
49 3 6
49 4 3
49 5 8
49 6 5
49 7 8
49 8 6
49 9 7
49 10 2
49 11 2
49 12 8
49 13 6
49 14 4
49 15 2
49 16 6
49 17 4
49 18 7
49 19 6
49 20 1
49 21 3
49 22 8
49 23 5
49 24 2
49 25 7
49 26 7
49 27 2
49 28 1
49 29 7
49 30 2
49 31 3
49 32 4
49 33 1
49 34 5
49 35 1
49 36 7
49 37 4
49 38 8
49 39 3
49 40 7
49 41 5
49 42 8
49 43 6
49 44 4
49 45 8
49 46 1
49 47 7
49 48 6
50 0 8
50 1 4
50 2 2
50 3 2
50 4 3
50 5 1
50 6 3
50 7 7
50 8 2
50 9 4
50 10 8
50 11 6
50 12 4
50 13 3
50 14 2
50 15 5
50 16 1
50 17 1
50 18 6
50 19 8
50 20 3
50 21 1
50 22 8
50 23 6
50 24 2
50 25 7
50 26 4
50 27 1
50 28 2
50 29 4
50 30 3
50 31 1
50 32 8
50 33 1
50 34 6
50 35 3
50 36 2
50 37 5
50 38 1
50 39 2
50 40 6
50 41 5
50 42 7
50 43 1
50 44 8
50 45 8
50 46 4
50 47 6
50 48 8
50 49 1
51 0 5
51 1 7
51 2 2
51 3 8
51 4 8
51 5 6
51 6 8
51 7 4
51 8 1
51 9 2
51 10 6
51 11 5
51 12 4
51 13 1
51 14 3
51 15 2
51 16 2
51 17 2
51 18 8
51 19 6
51 20 8
51 21 4
51 22 2
51 23 6
51 24 7
51 25 4
51 26 4
51 27 8
51 28 5
51 29 6
51 30 8
51 31 5
51 32 1
51 33 1
51 34 7
51 35 8
51 36 4
51 37 4
51 38 4
51 39 3
51 40 2
51 41 1
51 42 2
51 43 3
51 44 1
51 45 4
51 46 1
51 47 5
51 48 3
51 49 4
51 50 5
52 0 1
52 1 5
52 2 4
52 3 5
52 4 7
52 5 1
52 6 8
52 7 7
52 8 4
52 9 3
52 10 6
52 11 1
52 12 4
52 13 2
52 14 5
52 15 3
52 16 4
52 17 8
52 18 1
52 19 3
52 20 3
52 21 5
52 22 4
52 23 8
52 24 2
52 25 6
52 26 2
52 27 6
52 28 6
52 29 7
52 30 2
52 31 1
52 32 6
52 33 4
52 34 2
52 35 1
52 36 6
52 37 8
52 38 8
52 39 2
52 40 4
52 41 3
52 42 7
52 43 2
52 44 3
52 45 8
52 46 2
52 47 6
52 48 2
52 49 4
52 50 7
52 51 1
53 0 7
53 1 6
53 2 5
53 3 5
53 4 6
53 5 5
53 6 1
53 7 2
53 8 2
53 9 4
53 10 5
53 11 7
53 12 2
53 13 7
53 14 2
53 15 5
53 16 5
53 17 4
53 18 3
53 19 3
53 20 3
53 21 6
53 22 1
53 23 3
53 24 1
53 25 1
53 26 1
53 27 3
53 28 1
53 29 8
53 30 3
53 31 4
53 32 7
53 33 1
53 34 5
53 35 6
53 36 3
53 37 6
53 38 5
53 39 1
53 40 1
53 41 7
53 42 8
53 43 7
53 44 8
53 45 6
53 46 6
53 47 5
53 48 1
53 49 1
53 50 4
53 51 2
53 52 5
54 0 3
54 1 6
54 2 7
54 3 1
54 4 2
54 5 5
54 6 6
54 7 6
54 8 6
54 9 5
54 10 4
54 11 7
54 12 5
54 13 1
54 14 8
54 15 8
54 16 6
54 17 1
54 18 7
54 19 7
54 20 2
54 21 6
54 22 5
54 23 3
54 24 4
54 25 7
54 26 5
54 27 5
54 28 8
54 29 1
54 30 5
54 31 7
54 32 5
54 33 7
54 34 2
54 35 5
54 36 8
54 37 2
54 38 3
54 39 3
54 40 5
54 41 4
54 42 4
54 43 7
54 44 2
54 45 8
54 46 7
54 47 6
54 48 2
54 49 2
54 50 8
54 51 3
54 52 5
54 53 8
55 0 3
55 1 3
55 2 5
55 3 6
55 4 1
55 5 7
55 6 4
55 7 3
55 8 3
55 9 6
55 10 5
55 11 4
55 12 7
55 13 7
55 14 3
55 15 5
55 16 1
55 17 3
55 18 4
55 19 3
55 20 4
55 21 3
55 22 5
55 23 2
55 24 2
55 25 3
55 26 1
55 27 5
55 28 8
55 29 4
55 30 5
55 31 2
55 32 5
55 33 7
55 34 5
55 35 5
55 36 5
55 37 7
55 38 8
55 39 7
55 40 6
55 41 2
55 42 2
55 43 7
55 44 5
55 45 8
55 46 3
55 47 6
55 48 7
55 49 7
55 50 3
55 51 8
55 52 3
55 53 4
55 54 2
56 0 2
56 1 4
56 2 1
56 3 4
56 4 3
56 5 7
56 6 6
56 7 7
56 8 6
56 9 5
56 10 4
56 11 5
56 12 8
56 13 3
56 14 6
56 15 1
56 16 6
56 17 6
56 18 2
56 19 5
56 20 1
56 21 5
56 22 4
56 23 3
56 24 3
56 25 2
56 26 3
56 27 6
56 28 8
56 29 7
56 30 4
56 31 2
56 32 5
56 33 2
56 34 4
56 35 5
56 36 2
56 37 7
56 38 7
56 39 3
56 40 4
56 41 8
56 42 6
56 43 4
56 44 8
56 45 4
56 46 4
56 47 6
56 48 7
56 49 4
56 50 7
56 51 6
56 52 2
56 53 3
56 54 3
56 55 3
57 0 6
57 1 5
57 2 4
57 3 1
57 4 4
57 5 5
57 6 4
57 7 6
57 8 7
57 9 1
57 10 4
57 11 7
57 12 4
57 13 8
57 14 7
57 15 8
57 16 7
57 17 1
57 18 5
57 19 1
57 20 1
57 21 4
57 22 7
57 23 5
57 24 3
57 25 4
57 26 4
57 27 3
57 28 1
57 29 1
57 30 7
57 31 2
57 32 1
57 33 1
57 34 6
57 35 3
57 36 7
57 37 7
57 38 7
57 39 8
57 40 1
57 41 5
57 42 7
57 43 2
57 44 6
57 45 7
57 46 1
57 47 4
57 48 2
57 49 4
57 50 1
57 51 7
57 52 8
57 53 8
57 54 8
57 55 8
57 56 2
